Minimize
	value: tt

Subject to
tt + 1024 s_1_1 > 0.0
tt - t_1_1 - 1028.817536 s_1_1 + 4.817536 s_1_8 > -1022.546400
tt + 1024 s_2_1 > 0.0
tt - t_2_1 - 1028.850038 s_2_1 + 4.850038 s_2_8 > -1014.587103
tt + 1024 s_1_2 > 0.0
tt - t_1_2 - 1026.408768 s_1_2 + 2.408768 s_1_7 > -1022.517622
tt + 1024 s_2_2 > 0.0
tt - t_2_2 - 1026.425019 s_2_2 + 2.425019 s_2_7 > -1015.173915
tt + 1024 s_1_3 > 0.0
tt - t_1_3 - 1031.226304 s_1_3 + 7.226304 s_1_8 > -1023.647300
tt + 1024 s_2_3 > 0.0
tt - t_2_3 - 1031.275057 s_2_3 + 7.275057 s_2_8 > -1022.029143
tt + 1024 s_1_4 > 0.0
tt - t_1_4 - 1026.408768 s_1_4 + 2.408768 s_1_7 > -1023.371122
tt + 1024 s_2_4 > 0.0
tt - t_2_4 - 1026.425019 s_2_4 + 2.425019 s_2_7 > -1021.241018
tt + 1024 s_1_5 > 0.0
tt - t_1_5 - 1027.613152 s_1_5 + 3.613152 s_1_8 > -1023.456200
tt + 1024 s_2_5 > 0.0
tt - t_2_5 - 1027.637528 s_2_5 + 3.637528 s_2_8 > -1019.598554
tt + 1024 s_1_6 > 0.0
tt - t_1_6 - 1067.357826 s_1_6 + 43.357826 s_1_2 > -1023.551800
tt + 1024 s_2_6 > 0.0
tt - t_2_6 - 1067.650341 s_2_6 + 43.650341 s_2_2 > -1022.585429
tt + 1024 s_1_7 > 0.0
tt - t_1_7 - 1024.000000 s_1_7 > -1022.314900
tt + 1024 s_2_7 > 0.0
tt - t_2_7 - 1024.000000 s_2_7 > -1020.555557
tt + 1024 s_1_8 > 0.0
tt - t_1_8 - 1024.000000 s_1_8 > -1022.649500
tt + 1024 s_2_8 > 0.0
tt - t_2_8 - 1024.000000 s_2_8 > -1020.611856
s_1_1 + s_2_1  = 1
s_1_2 + s_2_2  = 1
s_1_3 + s_2_3  = 1
s_1_4 + s_2_4  = 1
s_1_5 + s_2_5  = 1
s_1_6 + s_2_6  = 1
s_1_7 + s_2_7  = 1
s_1_8 + s_2_8  = 1
s_1_1 + s_1_2 + 1024 r_1_1_2 >= 2
- s_1_1 - s_1_2 - 1024 r_1_1_2 >= -1025
t_1_1 - t_1_2 - 1024.000000 u_1_1_2 - 2.408768 s_1_2 + 2.408768 s_1_7 + 2048.000000 r_1_1_2 > -1022.517622
s_2_1 + s_2_2 + 1024 r_2_1_2 >= 2
- s_2_1 - s_2_2 - 1024 r_2_1_2 >= -1025
t_2_1 - t_2_2 - 1024.000000 u_2_1_2 - 2.425019 s_2_2 + 2.425019 s_2_7 + 2048.000000 r_2_1_2 > -1015.173915
s_1_1 + s_1_3 + 1024 r_1_1_3 >= 2
- s_1_1 - s_1_3 - 1024 r_1_1_3 >= -1025
t_1_1 - t_1_3 - 1024.000000 u_1_1_3 - 3.613152 s_1_3 + 3.613152 s_1_8 + 2048.000000 r_1_1_3 > -1023.647300
s_2_1 + s_2_3 + 1024 r_2_1_3 >= 2
- s_2_1 - s_2_3 - 1024 r_2_1_3 >= -1025
t_2_1 - t_2_3 - 1024.000000 u_2_1_3 - 3.637528 s_2_3 + 3.637528 s_2_8 + 2048.000000 r_2_1_3 > -1022.029143
s_1_1 + s_1_4 + 1024 r_1_1_4 >= 2
- s_1_1 - s_1_4 - 1024 r_1_1_4 >= -1025
t_1_1 - t_1_4 - 1024.000000 u_1_1_4 - 2.408768 s_1_4 + 2.408768 s_1_7 + 2048.000000 r_1_1_4 > -1023.371122
s_2_1 + s_2_4 + 1024 r_2_1_4 >= 2
- s_2_1 - s_2_4 - 1024 r_2_1_4 >= -1025
t_2_1 - t_2_4 - 1024.000000 u_2_1_4 - 2.425019 s_2_4 + 2.425019 s_2_7 + 2048.000000 r_2_1_4 > -1021.241018
s_1_1 + s_1_5 + 1024 r_1_1_5 >= 2
- s_1_1 - s_1_5 - 1024 r_1_1_5 >= -1025
t_1_1 - t_1_5 - 1024.000000 u_1_1_5 - 3.613152 s_1_5 + 3.613152 s_1_8 + 2048.000000 r_1_1_5 > -1023.456200
s_2_1 + s_2_5 + 1024 r_2_1_5 >= 2
- s_2_1 - s_2_5 - 1024 r_2_1_5 >= -1025
t_2_1 - t_2_5 - 1024.000000 u_2_1_5 - 3.637528 s_2_5 + 3.637528 s_2_8 + 2048.000000 r_2_1_5 > -1019.598554
t_1_6 - t_1_1 - 3.862368 s_1_1 + 2.408768 s_1_8 > 0.0
t_1_6 - t_2_1 - 11.837916 s_2_1 + 2.425019 s_2_8 > 0.0
t_2_6 - t_1_1 - 3.862368 s_1_1 + 2.408768 s_1_8 > 0.0
t_2_6 - t_2_1 - 11.837916 s_2_1 + 2.425019 s_2_8 > 0.0
t_1_1 - t_1_7 - 1024.000000 s_1_7 > -1022.314900
t_1_1 - t_2_7 - 1024.000000 s_2_7 > -1020.555557
t_2_1 - t_1_7 - 1024.000000 s_1_7 > -1022.314900
t_2_1 - t_2_7 - 1024.000000 s_2_7 > -1020.555557
t_1_1 - t_1_8 - 1024.000000 s_1_8 > -1022.649500
t_1_1 - t_2_8 - 1024.000000 s_2_8 > -1020.611856
t_2_1 - t_1_8 - 1024.000000 s_1_8 > -1022.649500
t_2_1 - t_2_8 - 1024.000000 s_2_8 > -1020.611856
s_1_2 + s_1_1 + 1024 r_1_1_2 >= 2
- s_1_2 - s_1_1 - 1024 r_1_1_2 >= -1025
t_1_2 - t_1_1 + 1024.000000 u_1_1_2 - 2.408768 s_1_1 + 2.408768 s_1_8 + 2048.000000 r_1_1_2 > 1.453600
s_2_2 + s_2_1 + 1024 r_2_1_2 >= 2
- s_2_2 - s_2_1 - 1024 r_2_1_2 >= -1025
t_2_2 - t_2_1 + 1024.000000 u_2_1_2 - 2.425019 s_2_1 + 2.425019 s_2_8 + 2048.000000 r_2_1_2 > 9.412897
s_1_2 + s_1_3 + 1024 r_1_2_3 >= 2
- s_1_2 - s_1_3 - 1024 r_1_2_3 >= -1025
t_1_2 - t_1_3 - 1024.000000 u_1_2_3 - 3.613152 s_1_3 + 3.613152 s_1_8 + 2048.000000 r_1_2_3 > -1023.647300
s_2_2 + s_2_3 + 1024 r_2_2_3 >= 2
- s_2_2 - s_2_3 - 1024 r_2_2_3 >= -1025
t_2_2 - t_2_3 - 1024.000000 u_2_2_3 - 3.637528 s_2_3 + 3.637528 s_2_8 + 2048.000000 r_2_2_3 > -1022.029143
s_1_2 + s_1_4 + 1024 r_1_2_4 >= 2
- s_1_2 - s_1_4 - 1024 r_1_2_4 >= -1025
t_1_2 - t_1_4 - 1024.000000 u_1_2_4 - 2.408768 s_1_4 + 2.408768 s_1_7 + 2048.000000 r_1_2_4 > -1023.371122
s_2_2 + s_2_4 + 1024 r_2_2_4 >= 2
- s_2_2 - s_2_4 - 1024 r_2_2_4 >= -1025
t_2_2 - t_2_4 - 1024.000000 u_2_2_4 - 2.425019 s_2_4 + 2.425019 s_2_7 + 2048.000000 r_2_2_4 > -1021.241018
s_1_2 + s_1_5 + 1024 r_1_2_5 >= 2
- s_1_2 - s_1_5 - 1024 r_1_2_5 >= -1025
t_1_2 - t_1_5 - 1024.000000 u_1_2_5 - 3.613152 s_1_5 + 3.613152 s_1_8 + 2048.000000 r_1_2_5 > -1023.456200
s_2_2 + s_2_5 + 1024 r_2_2_5 >= 2
- s_2_2 - s_2_5 - 1024 r_2_2_5 >= -1025
t_2_2 - t_2_5 - 1024.000000 u_2_2_5 - 3.637528 s_2_5 + 3.637528 s_2_8 + 2048.000000 r_2_2_5 > -1019.598554
t_1_6 - t_1_2 - 3.891146 s_1_2 + 2.408768 s_1_7 > 0.0
t_1_6 - t_2_2 - 11.251104 s_2_2 + 2.425019 s_2_7 > 0.0
t_2_6 - t_1_2 - 3.891146 s_1_2 + 2.408768 s_1_7 > 0.0
t_2_6 - t_2_2 - 11.251104 s_2_2 + 2.425019 s_2_7 > 0.0
t_1_2 - t_1_7 - 1024.000000 s_1_7 > -1022.314900
t_1_2 - t_2_7 - 1024.000000 s_2_7 > -1020.555557
t_2_2 - t_1_7 - 1024.000000 s_1_7 > -1022.314900
t_2_2 - t_2_7 - 1024.000000 s_2_7 > -1020.555557
s_1_2 + s_1_8 + 1024 r_1_2_8 >= 2
- s_1_2 - s_1_8 - 1024 r_1_2_8 >= -1025
t_1_2 - t_1_8 - 1024.000000 u_1_2_8 + 2048.000000 r_1_2_8 > -1022.649500
s_2_2 + s_2_8 + 1024 r_2_2_8 >= 2
- s_2_2 - s_2_8 - 1024 r_2_2_8 >= -1025
t_2_2 - t_2_8 - 1024.000000 u_2_2_8 + 2048.000000 r_2_2_8 > -1020.611856
s_1_3 + s_1_1 + 1024 r_1_1_3 >= 2
- s_1_3 - s_1_1 - 1024 r_1_1_3 >= -1025
t_1_3 - t_1_1 + 1024.000000 u_1_1_3 - 2.408768 s_1_1 + 2.408768 s_1_8 + 2048.000000 r_1_1_3 > 1.453600
s_2_3 + s_2_1 + 1024 r_2_1_3 >= 2
- s_2_3 - s_2_1 - 1024 r_2_1_3 >= -1025
t_2_3 - t_2_1 + 1024.000000 u_2_1_3 - 2.425019 s_2_1 + 2.425019 s_2_8 + 2048.000000 r_2_1_3 > 9.412897
s_1_3 + s_1_2 + 1024 r_1_2_3 >= 2
- s_1_3 - s_1_2 - 1024 r_1_2_3 >= -1025
t_1_3 - t_1_2 + 1024.000000 u_1_2_3 - 2.408768 s_1_2 + 2.408768 s_1_7 + 2048.000000 r_1_2_3 > 1.482378
s_2_3 + s_2_2 + 1024 r_2_2_3 >= 2
- s_2_3 - s_2_2 - 1024 r_2_2_3 >= -1025
t_2_3 - t_2_2 + 1024.000000 u_2_2_3 - 2.425019 s_2_2 + 2.425019 s_2_7 + 2048.000000 r_2_2_3 > 8.826085
s_1_3 + s_1_4 + 1024 r_1_3_4 >= 2
- s_1_3 - s_1_4 - 1024 r_1_3_4 >= -1025
t_1_3 - t_1_4 - 1024.000000 u_1_3_4 - 2.408768 s_1_4 + 2.408768 s_1_7 + 2048.000000 r_1_3_4 > -1023.371122
s_2_3 + s_2_4 + 1024 r_2_3_4 >= 2
- s_2_3 - s_2_4 - 1024 r_2_3_4 >= -1025
t_2_3 - t_2_4 - 1024.000000 u_2_3_4 - 2.425019 s_2_4 + 2.425019 s_2_7 + 2048.000000 r_2_3_4 > -1021.241018
s_1_3 + s_1_5 + 1024 r_1_3_5 >= 2
- s_1_3 - s_1_5 - 1024 r_1_3_5 >= -1025
t_1_3 - t_1_5 - 1024.000000 u_1_3_5 - 3.613152 s_1_5 + 3.613152 s_1_8 + 2048.000000 r_1_3_5 > -1023.456200
s_2_3 + s_2_5 + 1024 r_2_3_5 >= 2
- s_2_3 - s_2_5 - 1024 r_2_3_5 >= -1025
t_2_3 - t_2_5 - 1024.000000 u_2_3_5 - 3.637528 s_2_5 + 3.637528 s_2_8 + 2048.000000 r_2_3_5 > -1019.598554
t_1_6 - t_1_3 - 3.965852 s_1_3 + 3.613152 s_1_8 > 0.0
t_1_6 - t_2_3 - 5.608386 s_2_3 + 3.637528 s_2_8 > 0.0
t_2_6 - t_1_3 - 3.965852 s_1_3 + 3.613152 s_1_8 > 0.0
t_2_6 - t_2_3 - 5.608386 s_2_3 + 3.637528 s_2_8 > 0.0
t_1_3 - t_1_7 - 1024.000000 s_1_7 > -1022.314900
t_1_3 - t_2_7 - 1024.000000 s_2_7 > -1020.555557
t_2_3 - t_1_7 - 1024.000000 s_1_7 > -1022.314900
t_2_3 - t_2_7 - 1024.000000 s_2_7 > -1020.555557
t_1_3 - t_1_8 - 1024.000000 s_1_8 > -1022.649500
t_1_3 - t_2_8 - 1024.000000 s_2_8 > -1020.611856
t_2_3 - t_1_8 - 1024.000000 s_1_8 > -1022.649500
t_2_3 - t_2_8 - 1024.000000 s_2_8 > -1020.611856
s_1_4 + s_1_1 + 1024 r_1_1_4 >= 2
- s_1_4 - s_1_1 - 1024 r_1_1_4 >= -1025
t_1_4 - t_1_1 + 1024.000000 u_1_1_4 - 2.408768 s_1_1 + 2.408768 s_1_8 + 2048.000000 r_1_1_4 > 1.453600
s_2_4 + s_2_1 + 1024 r_2_1_4 >= 2
- s_2_4 - s_2_1 - 1024 r_2_1_4 >= -1025
t_2_4 - t_2_1 + 1024.000000 u_2_1_4 - 2.425019 s_2_1 + 2.425019 s_2_8 + 2048.000000 r_2_1_4 > 9.412897
s_1_4 + s_1_2 + 1024 r_1_2_4 >= 2
- s_1_4 - s_1_2 - 1024 r_1_2_4 >= -1025
t_1_4 - t_1_2 + 1024.000000 u_1_2_4 - 2.408768 s_1_2 + 2.408768 s_1_7 + 2048.000000 r_1_2_4 > 1.482378
s_2_4 + s_2_2 + 1024 r_2_2_4 >= 2
- s_2_4 - s_2_2 - 1024 r_2_2_4 >= -1025
t_2_4 - t_2_2 + 1024.000000 u_2_2_4 - 2.425019 s_2_2 + 2.425019 s_2_7 + 2048.000000 r_2_2_4 > 8.826085
s_1_4 + s_1_3 + 1024 r_1_3_4 >= 2
- s_1_4 - s_1_3 - 1024 r_1_3_4 >= -1025
t_1_4 - t_1_3 + 1024.000000 u_1_3_4 - 3.613152 s_1_3 + 3.613152 s_1_8 + 2048.000000 r_1_3_4 > 0.352700
s_2_4 + s_2_3 + 1024 r_2_3_4 >= 2
- s_2_4 - s_2_3 - 1024 r_2_3_4 >= -1025
t_2_4 - t_2_3 + 1024.000000 u_2_3_4 - 3.637528 s_2_3 + 3.637528 s_2_8 + 2048.000000 r_2_3_4 > 1.970857
s_1_4 + s_1_5 + 1024 r_1_4_5 >= 2
- s_1_4 - s_1_5 - 1024 r_1_4_5 >= -1025
t_1_4 - t_1_5 - 1024.000000 u_1_4_5 - 3.613152 s_1_5 + 3.613152 s_1_8 + 2048.000000 r_1_4_5 > -1023.456200
s_2_4 + s_2_5 + 1024 r_2_4_5 >= 2
- s_2_4 - s_2_5 - 1024 r_2_4_5 >= -1025
t_2_4 - t_2_5 - 1024.000000 u_2_4_5 - 3.637528 s_2_5 + 3.637528 s_2_8 + 2048.000000 r_2_4_5 > -1019.598554
t_1_6 - t_1_4 - 3.037646 s_1_4 + 2.408768 s_1_7 > 0.0
t_1_6 - t_2_4 - 5.184001 s_2_4 + 2.425019 s_2_7 > 0.0
t_2_6 - t_1_4 - 3.037646 s_1_4 + 2.408768 s_1_7 > 0.0
t_2_6 - t_2_4 - 5.184001 s_2_4 + 2.425019 s_2_7 > 0.0
t_1_4 - t_1_7 - 1024.000000 s_1_7 > -1022.314900
t_1_4 - t_2_7 - 1024.000000 s_2_7 > -1020.555557
t_2_4 - t_1_7 - 1024.000000 s_1_7 > -1022.314900
t_2_4 - t_2_7 - 1024.000000 s_2_7 > -1020.555557
s_1_4 + s_1_8 + 1024 r_1_4_8 >= 2
- s_1_4 - s_1_8 - 1024 r_1_4_8 >= -1025
t_1_4 - t_1_8 - 1024.000000 u_1_4_8 + 2048.000000 r_1_4_8 > -1022.649500
s_2_4 + s_2_8 + 1024 r_2_4_8 >= 2
- s_2_4 - s_2_8 - 1024 r_2_4_8 >= -1025
t_2_4 - t_2_8 - 1024.000000 u_2_4_8 + 2048.000000 r_2_4_8 > -1020.611856
s_1_5 + s_1_1 + 1024 r_1_1_5 >= 2
- s_1_5 - s_1_1 - 1024 r_1_1_5 >= -1025
t_1_5 - t_1_1 + 1024.000000 u_1_1_5 - 2.408768 s_1_1 + 2.408768 s_1_8 + 2048.000000 r_1_1_5 > 1.453600
s_2_5 + s_2_1 + 1024 r_2_1_5 >= 2
- s_2_5 - s_2_1 - 1024 r_2_1_5 >= -1025
t_2_5 - t_2_1 + 1024.000000 u_2_1_5 - 2.425019 s_2_1 + 2.425019 s_2_8 + 2048.000000 r_2_1_5 > 9.412897
s_1_5 + s_1_2 + 1024 r_1_2_5 >= 2
- s_1_5 - s_1_2 - 1024 r_1_2_5 >= -1025
t_1_5 - t_1_2 + 1024.000000 u_1_2_5 - 2.408768 s_1_2 + 2.408768 s_1_7 + 2048.000000 r_1_2_5 > 1.482378
s_2_5 + s_2_2 + 1024 r_2_2_5 >= 2
- s_2_5 - s_2_2 - 1024 r_2_2_5 >= -1025
t_2_5 - t_2_2 + 1024.000000 u_2_2_5 - 2.425019 s_2_2 + 2.425019 s_2_7 + 2048.000000 r_2_2_5 > 8.826085
s_1_5 + s_1_3 + 1024 r_1_3_5 >= 2
- s_1_5 - s_1_3 - 1024 r_1_3_5 >= -1025
t_1_5 - t_1_3 + 1024.000000 u_1_3_5 - 3.613152 s_1_3 + 3.613152 s_1_8 + 2048.000000 r_1_3_5 > 0.352700
s_2_5 + s_2_3 + 1024 r_2_3_5 >= 2
- s_2_5 - s_2_3 - 1024 r_2_3_5 >= -1025
t_2_5 - t_2_3 + 1024.000000 u_2_3_5 - 3.637528 s_2_3 + 3.637528 s_2_8 + 2048.000000 r_2_3_5 > 1.970857
s_1_5 + s_1_4 + 1024 r_1_4_5 >= 2
- s_1_5 - s_1_4 - 1024 r_1_4_5 >= -1025
t_1_5 - t_1_4 + 1024.000000 u_1_4_5 - 2.408768 s_1_4 + 2.408768 s_1_7 + 2048.000000 r_1_4_5 > 0.628878
s_2_5 + s_2_4 + 1024 r_2_4_5 >= 2
- s_2_5 - s_2_4 - 1024 r_2_4_5 >= -1025
t_2_5 - t_2_4 + 1024.000000 u_2_4_5 - 2.425019 s_2_4 + 2.425019 s_2_7 + 2048.000000 r_2_4_5 > 2.758982
t_1_6 - t_1_5 - 4.156952 s_1_5 + 3.613152 s_1_8 > 0.0
t_1_6 - t_2_5 - 8.038975 s_2_5 + 3.637528 s_2_8 > 0.0
t_2_6 - t_1_5 - 4.156952 s_1_5 + 3.613152 s_1_8 > 0.0
t_2_6 - t_2_5 - 8.038975 s_2_5 + 3.637528 s_2_8 > 0.0
s_1_5 + s_1_7 + 1024 r_1_5_7 >= 2
- s_1_5 - s_1_7 - 1024 r_1_5_7 >= -1025
t_1_5 - t_1_7 - 1024.000000 u_1_5_7 + 2048.000000 r_1_5_7 > -1022.314900
s_2_5 + s_2_7 + 1024 r_2_5_7 >= 2
- s_2_5 - s_2_7 - 1024 r_2_5_7 >= -1025
t_2_5 - t_2_7 - 1024.000000 u_2_5_7 + 2048.000000 r_2_5_7 > -1020.555557
t_1_5 - t_1_8 - 1024.000000 s_1_8 > -1022.649500
t_1_5 - t_2_8 - 1024.000000 s_2_8 > -1020.611856
t_2_5 - t_1_8 - 1024.000000 s_1_8 > -1022.649500
t_2_5 - t_2_8 - 1024.000000 s_2_8 > -1020.611856
t_1_6 - t_1_7 - 1024.000000 s_1_7 > -1022.314900
t_1_6 - t_2_7 - 1024.000000 s_2_7 > -1020.555557
t_2_6 - t_1_7 - 1024.000000 s_1_7 > -1022.314900
t_2_6 - t_2_7 - 1024.000000 s_2_7 > -1020.555557
s_1_7 + s_1_5 + 1024 r_1_5_7 >= 2
- s_1_7 - s_1_5 - 1024 r_1_5_7 >= -1025
t_1_7 - t_1_5 + 1024.000000 u_1_5_7 - 3.613152 s_1_5 + 3.613152 s_1_8 + 2048.000000 r_1_5_7 > 0.543800
s_2_7 + s_2_5 + 1024 r_2_5_7 >= 2
- s_2_7 - s_2_5 - 1024 r_2_5_7 >= -1025
t_2_7 - t_2_5 + 1024.000000 u_2_5_7 - 3.637528 s_2_5 + 3.637528 s_2_8 + 2048.000000 r_2_5_7 > 4.401446
s_1_7 + s_1_8 + 1024 r_1_7_8 >= 2
- s_1_7 - s_1_8 - 1024 r_1_7_8 >= -1025
t_1_7 - t_1_8 - 1024.000000 u_1_7_8 + 2048.000000 r_1_7_8 > -1022.649500
s_2_7 + s_2_8 + 1024 r_2_7_8 >= 2
- s_2_7 - s_2_8 - 1024 r_2_7_8 >= -1025
t_2_7 - t_2_8 - 1024.000000 u_2_7_8 + 2048.000000 r_2_7_8 > -1020.611856
s_1_8 + s_1_2 + 1024 r_1_2_8 >= 2
- s_1_8 - s_1_2 - 1024 r_1_2_8 >= -1025
t_1_8 - t_1_2 + 1024.000000 u_1_2_8 - 2.408768 s_1_2 + 2.408768 s_1_7 + 2048.000000 r_1_2_8 > 1.482378
s_2_8 + s_2_2 + 1024 r_2_2_8 >= 2
- s_2_8 - s_2_2 - 1024 r_2_2_8 >= -1025
t_2_8 - t_2_2 + 1024.000000 u_2_2_8 - 2.425019 s_2_2 + 2.425019 s_2_7 + 2048.000000 r_2_2_8 > 8.826085
s_1_8 + s_1_4 + 1024 r_1_4_8 >= 2
- s_1_8 - s_1_4 - 1024 r_1_4_8 >= -1025
t_1_8 - t_1_4 + 1024.000000 u_1_4_8 - 2.408768 s_1_4 + 2.408768 s_1_7 + 2048.000000 r_1_4_8 > 0.628878
s_2_8 + s_2_4 + 1024 r_2_4_8 >= 2
- s_2_8 - s_2_4 - 1024 r_2_4_8 >= -1025
t_2_8 - t_2_4 + 1024.000000 u_2_4_8 - 2.425019 s_2_4 + 2.425019 s_2_7 + 2048.000000 r_2_4_8 > 2.758982
s_1_8 + s_1_7 + 1024 r_1_7_8 >= 2
- s_1_8 - s_1_7 - 1024 r_1_7_8 >= -1025
t_1_8 - t_1_7 + 1024.000000 u_1_7_8 + 2048.000000 r_1_7_8 > 1.685100
s_2_8 + s_2_7 + 1024 r_2_7_8 >= 2
- s_2_8 - s_2_7 - 1024 r_2_7_8 >= -1025
t_2_8 - t_2_7 + 1024.000000 u_2_7_8 + 2048.000000 r_2_7_8 > 3.444443
Binary
s_1_1
s_2_1
s_1_2
s_2_2
s_1_3
s_2_3
s_1_4
s_2_4
s_1_5
s_2_5
s_1_6
s_2_6
s_1_7
s_2_7
s_1_8
s_2_8
u_1_1_2
r_1_1_2
u_2_1_2
r_2_1_2
u_1_1_3
r_1_1_3
u_2_1_3
r_2_1_3
u_1_1_4
r_1_1_4
u_2_1_4
r_2_1_4
u_1_1_5
r_1_1_5
u_2_1_5
r_2_1_5
u_1_2_3
r_1_2_3
u_2_2_3
r_2_2_3
u_1_2_4
r_1_2_4
u_2_2_4
r_2_2_4
u_1_2_5
r_1_2_5
u_2_2_5
r_2_2_5
u_1_2_8
r_1_2_8
u_2_2_8
r_2_2_8
u_1_3_4
r_1_3_4
u_2_3_4
r_2_3_4
u_1_3_5
r_1_3_5
u_2_3_5
r_2_3_5
u_1_4_5
r_1_4_5
u_2_4_5
r_2_4_5
u_1_4_8
r_1_4_8
u_2_4_8
r_2_4_8
u_1_5_7
r_1_5_7
u_2_5_7
r_2_5_7
u_1_7_8
r_1_7_8
u_2_7_8
r_2_7_8

End
